46 
300 
10.5 14.4 0 0
11.2 14.1 0 -97
18 15.9 10 -23
18.3 13.3 -10 -108
16.5 9.3 10 -29
15.4 11 10 -15
14.9 13.2 5 -12
16.3 13.3 -5 -120
16.4 17.8 -5 -60
15 17.9 -5 -70
16.1 19.6 10 -11
15.7 20.6 -10 -63
13.2 20.1 10 -23
14.3 15.3 5 -22
14 5.1 10 -27
11.4 6.7 15 -21
8.3 5 -15 -88
7.9 9.8 10 -24
11.4 12 -5 -135
11.2 17.6 -5 -134
10.1 18.7 -5 -96
11.7 20.3 10 -11
10.2 22.1 10 -27
9.7 23.8 10 -14
10.1 26.4 -15 -102
7.4 24 15 -25
8.2 19.9 -15 -84
8.7 17.7 10 -27
8.9 13.6 -10 -115
5.6 11.1 -10 -87
4.9 18.9 -10 -134
7.3 18.8 -10 -87
